20494 17082 17989
21214 14965 19784
21421 15145 18544
19360 17328 18923
19741 12981 21898
20706 16095 19569
20808 15331 20266
21070 14830 20132
17182 18066 16907
20209 14155 21558
19939 14843 21337
20672 15565 20323
20161 16183 20322
17706 18150 16552
20542 15724 20401
17944 17684 18210
19299 15854 20688
17037 18301 15524
19846 15968 20536
18323 17891 17612
21021 13727 20891
18608 14588 21591
17358 12633 22264
18349 17392 18828
18436 18069 16364
18920 17825 17386
19452 13986 21861
21417 14572 19521
21721 13758 17987
19158 17807 16347
18725 13968 21960
20079 14314 21636
20454 15311 20876
18869 16870 19828
18984 12812 22201
18207 12260 22254
18485 16184 20459
18609 15550 20945
21010 16012 18866
21270 13854 20322
20991 13549 20940
18172 17540 18542
18232 12872 22224
20112 16740 19541
20541 14762 21047
19386 14759 21455
20671 14603 20969
20668 14091 21183
20937 15607 19677
20018 15640 20756
19965 17476 18018
20528 16171 19821
21586 13298 19174
19588 16656 19896
